************************************************************************
file with basedata            : mf25_.bas
initial value random generator: 25597
************************************************************************
projects                      :  1
jobs (incl. supersource/sink ):  32
horizon                       :  241
RESOURCES
  - renewable                 :  2   R
  - nonrenewable              :  2   N
  - doubly constrained        :  0   D
************************************************************************
PROJECT INFORMATION:
pronr.  #jobs rel.date duedate tardcost  MPM-Time
    1     30      0       32        6       32
************************************************************************
PRECEDENCE RELATIONS:
jobnr.    #modes  #successors   successors
   1        1          3           2   3   4
   2        3          3           6   9  17
   3        3          3           5   7  29
   4        3          3           6  15  16
   5        3          2          10  12
   6        3          3           8  14  22
   7        3          3          20  23  28
   8        3          2          11  12
   9        3          1          19
  10        3          2          21  30
  11        3          2          13  18
  12        3          2          20  23
  13        3          1          19
  14        3          2          21  24
  15        3          2          26  27
  16        3          3          19  22  24
  17        3          2          26  31
  18        3          2          24  25
  19        3          1          23
  20        3          1          21
  21        3          1          25
  22        3          1          27
  23        3          2          25  30
  24        3          2          26  29
  25        3          1          31
  26        3          1          28
  27        3          3          28  29  31
  28        3          1          30
  29        3          1          32
  30        3          1          32
  31        3          1          32
  32        1          0        
************************************************************************
REQUESTS/DURATIONS:
jobnr. mode duration  R 1  R 2  N 1  N 2
------------------------------------------------------------------------
  1      1     0       0    0    0    0
  2      1     4       0    9    0    4
         2    10       0    8    8    0
         3    10       5    0    6    0
  3      1     3       0   10    5    0
         2     6       0    9    3    0
         3    10       0    9    0    6
  4      1     1       6    0    0    5
         2     5       1    0    0    5
         3     8       0    6    3    0
  5      1     4       6    0    7    0
         2     4       0    2    0    8
         3    10       6    0    0    6
  6      1     4       0    9    0   10
         2     4       9    0    4    0
         3     8       0    9    0    9
  7      1     4       2    0    5    0
         2     4       3    0    2    0
         3     4       2    0    0    6
  8      1     1       0    7    3    0
         2    10       0    7    0    5
         3    10       2    0    0    8
  9      1     7       5    0    0    6
         2     9       0    9    7    0
         3     9       3    0    0    5
 10      1     4       8    0    5    0
         2     5       5    0    0    2
         3     6       0    7    4    0
 11      1     6       0    7    5    0
         2     7       3    0    4    0
         3    10       0    2    3    0
 12      1     6       0    6    4    0
         2     9       0    4    4    0
         3     9       0    5    0    9
 13      1     4       0    7    0    8
         2     5       0    4    0    8
         3     8       0    4    4    0
 14      1     1       0    6    0    6
         2     4       0    5    3    0
         3     4       4    0    2    0
 15      1     3       0    5    1    0
         2     3       0    8    0    8
         3     5       7    0    0    7
 16      1     1       4    0    0    8
         2     3       0    4    0    5
         3     4       0    4   10    0
 17      1     5       0    4    0    8
         2     8       6    0    0    5
         3    10       6    0   10    0
 18      1     5       5    0    0    4
         2     9       0    4    5    0
         3    10       0    3    0    4
 19      1     3       9    0    7    0
         2     5       0    6    7    0
         3    10       3    0    0    7
 20      1     7       4    0    0    8
         2    10       0    6    2    0
         3    10       3    0    0    1
 21      1     4       6    0    5    0
         2     5       6    0    0   10
         3     6       3    0    0   10
 22      1     2       7    0    5    0
         2     4       5    0    0    6
         3     8       0    3    0    6
 23      1     3       8    0    0    8
         2    10       0   10    3    0
         3    10       0    9    0    5
 24      1     1       0    4    8    0
         2     2       0    4    0    2
         3     6       0    3    3    0
 25      1     3      10    0    0    9
         2     4       9    0    0    7
         3     9       9    0    0    2
 26      1     7       6    0    0   10
         2     7       0    9    0   10
         3     8       0    5    0    9
 27      1     1       8    0    9    0
         2     4       0    7    0    5
         3     6       0    6    8    0
 28      1     1      10    0    4    0
         2     3       0    8    0    7
         3     7       8    0    0    7
 29      1     6       0    4    0    3
         2     7       0    3    4    0
         3     9       4    0    0    2
 30      1     1       6    0    6    0
         2     6       0   10    0    9
         3     7       5    0    5    0
 31      1     3       6    0    0    8
         2     7       3    0    0    6
         3    10       0    5    0    5
 32      1     0       0    0    0    0
************************************************************************
RESOURCEAVAILABILITIES:
  R 1  R 2  N 1  N 2
   14   17  142  198
************************************************************************
